nK = 715;
nT = 4;
nI = 7;
L = 35;
TT = 189;
np = 1;
nc = 3;
b = [49, 34, 66, 21, 28, 37, 28];
d = [111, 55, 105, 61, 112, 145, 109];
m = [2.2, 1.8, 1.6, 2.2, 2.2, 1.6, 1.9];
pt = [0.29, 0.35, 0.34, 0.25];
st = [12.18, 15.05, 20.4, 10.25];
arc = {<1, 0, 1, 1, 0, 0, 0, [1, 1, 1, 1]>, <2, 1, 2, 1, 0, 0, 0, [1, 1, 1, 1]>, <3, 2, 3, 1, 0, 0, 0, [1, 1, 1, 1]>, <4, 3, 4, 1, 0, 0, 0, [1, 1, 1, 1]>, <5, 4, 5, 1, 0, 0, 0, [1, 1, 1, 1]>, <6, 5, 6, 1, 0, 0, 0, [1, 1, 1, 1]>, <7, 6, 7, 1, 0, 0, 0, [1, 1, 1, 1]>, <8, 7, 8, 1, 0, 0, 0, [1, 1, 1, 1]>, <9, 8, 9, 1, 0, 0, 0, [1, 1, 1, 1]>, <10, 9, 10, 1, 0, 0, 0, [1, 1, 1, 1]>, <11, 10, 11, 1, 0, 0, 0, [1, 1, 1, 1]>, <12, 11, 12, 1, 0, 0, 0, [1, 1, 1, 1]>, <13, 12, 13, 1, 0, 0, 0, [1, 1, 1, 1]>, <14, 13, 14, 1, 0, 0, 0, [1, 1, 1, 1]>, <15, 14, 15, 1, 0, 0, 0, [1, 1, 1, 1]>, <16, 15, 16, 1, 0, 0, 0, [1, 1, 1, 1]>, <17, 16, 17, 1, 0, 0, 0, [1, 1, 1, 1]>, <18, 17, 18, 1, 0, 0, 0, [1, 1, 1, 1]>, <19, 18, 19, 1, 0, 0, 0, [1, 1, 1, 1]>, <20, 19, 20, 1, 0, 0, 0, [1, 1, 1, 1]>, <21, 20, 21, 1, 0, 0, 0, [1, 1, 1, 1]>, <22, 21, 22, 1, 0, 0, 0, [1, 1, 1, 1]>, <23, 22, 23, 1, 0, 0, 0, [1, 1, 1, 1]>, <24, 23, 24, 1, 0, 0, 0, [1, 1, 1, 1]>, <25, 24, 25, 1, 0, 0, 0, [1, 1, 1, 1]>, <26, 25, 26, 1, 0, 0, 0, [1, 1, 1, 1]>, <27, 26, 27, 1, 0, 0, 0, [1, 1, 1, 1]>, <28, 27, 28, 1, 0, 0, 0, [1, 1, 1, 1]>, <29, 28, 29, 1, 0, 0, 0, [1, 1, 1, 1]>, <30, 29, 30, 1, 0, 0, 0, [1, 1, 1, 1]>, <31, 30, 31, 1, 0, 0, 0, [1, 1, 1, 1]>, <32, 31, 32, 1, 0, 0, 0, [1, 1, 1, 1]>, <33, 32, 33, 1, 0, 0, 0, [1, 1, 1, 1]>, <34, 33, 34, 1, 0, 0, 0, [1, 1, 1, 1]>, <35, 34, 35, 1, 0, 0, 0, [1, 1, 1, 1]>, <36, 3, 17, 14, 1, 0, 0, [1, 0, 1, 1]>, <37, 4, 18, 14, 1, 0, 0, [1, 0, 1, 1]>, <38, 5, 19, 14, 1, 0, 0, [1, 0, 1, 1]>, <39, 6, 20, 14, 1, 0, 0, [1, 0, 1, 1]>, <40, 12, 26, 14, 1, 0, 0, [1, 0, 1, 1]>, <41, 13, 27, 14, 1, 0, 0, [1, 0, 1, 1]>, <42, 14, 28, 14, 1, 0, 0, [1, 0, 1, 1]>, <43, 15, 29, 14, 1, 0, 0, [1, 0, 1, 1]>, <44, 17, 31, 14, 1, 0, 0, [1, 0, 1, 1]>, <45, 18, 32, 14, 1, 0, 0, [1, 0, 1, 1]>, <46, 19, 33, 14, 1, 0, 0, [1, 0, 1, 1]>, <47, 20, 34, 14, 1, 0, 0, [1, 0, 1, 1]>, <48, 21, 35, 14, 1, 0, 0, [1, 0, 1, 1]>, <49, 2, 17, 15, 2, 0, 0, [0, 1, 1, 1]>, <50, 3, 18, 15, 2, 0, 0, [0, 1, 1, 1]>, <51, 4, 19, 15, 2, 0, 0, [0, 1, 1, 1]>, <52, 5, 20, 15, 2, 0, 0, [0, 1, 1, 1]>, <53, 6, 21, 15, 2, 0, 0, [0, 1, 1, 1]>, <54, 11, 26, 15, 2, 0, 0, [0, 1, 1, 1]>, <55, 12, 27, 15, 2, 0, 0, [0, 1, 1, 1]>, <56, 13, 28, 15, 2, 0, 0, [0, 1, 1, 1]>, <57, 14, 29, 15, 2, 0, 0, [0, 1, 1, 1]>, <58, 15, 30, 15, 2, 0, 0, [0, 1, 1, 1]>, <59, 16, 31, 15, 2, 0, 0, [0, 1, 1, 1]>, <60, 17, 32, 15, 2, 0, 0, [0, 1, 1, 1]>, <61, 18, 33, 15, 2, 0, 0, [0, 1, 1, 1]>, <62, 19, 34, 15, 2, 0, 0, [0, 1, 1, 1]>, <63, 20, 35, 15, 2, 0, 0, [0, 1, 1, 1]>, <64, 0, 18, 18, 3, 0, 0, [1, 0, 1, 1]>, <65, 1, 19, 18, 3, 0, 0, [1, 0, 1, 1]>, <66, 2, 20, 18, 3, 0, 0, [1, 0, 1, 1]>, <67, 3, 21, 18, 3, 0, 0, [1, 0, 1, 1]>, <68, 4, 22, 18, 3, 0, 0, [1, 0, 1, 1]>, <69, 5, 23, 18, 3, 0, 0, [1, 0, 1, 1]>, <70, 6, 24, 18, 3, 0, 0, [1, 0, 1, 1]>, <71, 8, 26, 18, 3, 0, 0, [1, 0, 1, 1]>, <72, 9, 27, 18, 3, 0, 0, [1, 0, 1, 1]>, <73, 10, 28, 18, 3, 0, 0, [1, 0, 1, 1]>, <74, 11, 29, 18, 3, 0, 0, [1, 0, 1, 1]>, <75, 12, 30, 18, 3, 0, 0, [1, 0, 1, 1]>, <76, 13, 31, 18, 3, 0, 0, [1, 0, 1, 1]>, <77, 14, 32, 18, 3, 0, 0, [1, 0, 1, 1]>, <78, 15, 33, 18, 3, 0, 0, [1, 0, 1, 1]>, <79, 16, 34, 18, 3, 0, 0, [1, 0, 1, 1]>, <80, 17, 35, 18, 3, 0, 0, [1, 0, 1, 1]>, <81, 1, 17, 16, 4, 0, 1, [1, 1, 1, 0]>, <82, 2, 18, 16, 4, 0, 1, [1, 1, 1, 0]>, <83, 3, 19, 16, 4, 0, 1, [1, 1, 1, 0]>, <84, 4, 20, 16, 4, 0, 1, [1, 1, 1, 0]>, <85, 5, 21, 16, 4, 0, 1, [1, 1, 1, 0]>, <86, 6, 22, 16, 4, 0, 1, [1, 1, 1, 0]>, <87, 10, 26, 16, 4, 0, 1, [1, 1, 1, 0]>, <88, 11, 27, 16, 4, 0, 1, [1, 1, 1, 0]>, <89, 12, 28, 16, 4, 0, 1, [1, 1, 1, 0]>, <90, 13, 29, 16, 4, 0, 1, [1, 1, 1, 0]>, <91, 14, 30, 16, 4, 0, 1, [1, 1, 1, 0]>, <92, 15, 31, 16, 4, 0, 1, [1, 1, 1, 0]>, <93, 16, 32, 16, 4, 0, 1, [1, 1, 1, 0]>, <94, 17, 33, 16, 4, 0, 1, [1, 1, 1, 0]>, <95, 18, 34, 16, 4, 0, 1, [1, 1, 1, 0]>, <96, 19, 35, 16, 4, 0, 1, [1, 1, 1, 0]>, <97, 3, 17, 14, 5, 1, 0, [0, 1, 1, 1]>, <98, 4, 18, 14, 5, 1, 0, [0, 1, 1, 1]>, <99, 5, 19, 14, 5, 1, 0, [0, 1, 1, 1]>, <100, 6, 20, 14, 5, 1, 0, [0, 1, 1, 1]>, <101, 12, 26, 14, 5, 1, 0, [0, 1, 1, 1]>, <102, 13, 27, 14, 5, 1, 0, [0, 1, 1, 1]>, <103, 14, 28, 14, 5, 1, 0, [0, 1, 1, 1]>, <104, 15, 29, 14, 5, 1, 0, [0, 1, 1, 1]>, <105, 17, 31, 14, 5, 1, 0, [0, 1, 1, 1]>, <106, 18, 32, 14, 5, 1, 0, [0, 1, 1, 1]>, <107, 19, 33, 14, 5, 1, 0, [0, 1, 1, 1]>, <108, 20, 34, 14, 5, 1, 0, [0, 1, 1, 1]>, <109, 21, 35, 14, 5, 1, 0, [0, 1, 1, 1]>, <110, 0, 19, 19, 6, 1, 0, [1, 1, 1, 0]>, <111, 1, 20, 19, 6, 1, 0, [1, 1, 1, 0]>, <112, 2, 21, 19, 6, 1, 0, [1, 1, 1, 0]>, <113, 3, 22, 19, 6, 1, 0, [1, 1, 1, 0]>, <114, 4, 23, 19, 6, 1, 0, [1, 1, 1, 0]>, <115, 5, 24, 19, 6, 1, 0, [1, 1, 1, 0]>, <116, 6, 25, 19, 6, 1, 0, [1, 1, 1, 0]>, <117, 7, 26, 19, 6, 1, 0, [1, 1, 1, 0]>, <118, 8, 27, 19, 6, 1, 0, [1, 1, 1, 0]>, <119, 9, 28, 19, 6, 1, 0, [1, 1, 1, 0]>, <120, 10, 29, 19, 6, 1, 0, [1, 1, 1, 0]>, <121, 11, 30, 19, 6, 1, 0, [1, 1, 1, 0]>, <122, 12, 31, 19, 6, 1, 0, [1, 1, 1, 0]>, <123, 13, 32, 19, 6, 1, 0, [1, 1, 1, 0]>, <124, 14, 33, 19, 6, 1, 0, [1, 1, 1, 0]>, <125, 15, 34, 19, 6, 1, 0, [1, 1, 1, 0]>, <126, 16, 35, 19, 6, 1, 0, [1, 1, 1, 0]>, <127, 0, 18, 18, 7, 0, 0, [1, 0, 1, 1]>, <128, 1, 19, 18, 7, 0, 0, [1, 0, 1, 1]>, <129, 2, 20, 18, 7, 0, 0, [1, 0, 1, 1]>, <130, 3, 21, 18, 7, 0, 0, [1, 0, 1, 1]>, <131, 4, 22, 18, 7, 0, 0, [1, 0, 1, 1]>, <132, 5, 23, 18, 7, 0, 0, [1, 0, 1, 1]>, <133, 6, 24, 18, 7, 0, 0, [1, 0, 1, 1]>, <134, 8, 26, 18, 7, 0, 0, [1, 0, 1, 1]>, <135, 9, 27, 18, 7, 0, 0, [1, 0, 1, 1]>, <136, 10, 28, 18, 7, 0, 0, [1, 0, 1, 1]>, <137, 11, 29, 18, 7, 0, 0, [1, 0, 1, 1]>, <138, 12, 30, 18, 7, 0, 0, [1, 0, 1, 1]>, <139, 13, 31, 18, 7, 0, 0, [1, 0, 1, 1]>, <140, 14, 32, 18, 7, 0, 0, [1, 0, 1, 1]>, <141, 15, 33, 18, 7, 0, 0, [1, 0, 1, 1]>, <142, 16, 34, 18, 7, 0, 0, [1, 0, 1, 1]>, <143, 17, 35, 18, 7, 0, 0, [1, 0, 1, 1]>};
